151
300
210	6
209	7
208	5
207	13
206	3
205	6
204	8
203	5
202	9
201	2
200	5
199	5
198	5
197	10
196	4
195	10
194	7
193	2
192	8
191	7
190	5
189	6
188	7
187	12
186	8
185	7
184	8
183	4
182	5
181	6
180	5
179	10
178	9
177	5
176	9
175	8
174	7
173	9
172	5
171	11
170	4
169	7
168	6
167	8
166	5
165	8
164	7
163	1
162	2
161	5
160	5
159	7
158	4
157	2
156	8
155	7
154	9
153	6
152	9
151	7
150	10
149	10
148	9
147	7
146	6
145	3
144	6
143	5
142	1
141	6
140	7
139	4
138	7
137	8
136	5
135	7
134	7
133	2
132	5
131	8
130	11
129	11
128	4
127	10
126	5
125	7
124	9
123	8
122	14
121	5
120	5
119	8
118	9
117	6
116	7
115	11
114	2
113	5
112	7
111	7
110	4
109	10
108	10
107	5
106	12
105	9
104	8
103	5
102	8
101	4
100	7
99	11
98	10
97	4
96	4
95	2
94	8
93	4
92	6
91	3
90	4
89	10
88	5
87	6
86	4
85	6
84	6
83	8
82	10
81	4
80	8
79	8
78	7
77	7
76	5
75	1
74	9
73	5
72	8
71	5
70	7
69	9
68	5
67	7
66	7
65	8
64	9
63	5
62	8
61	8
60	3
